0
20
51
94
34
16
2
35
42
92
58
45
100
98
55
99
43
37
8
4
74
53
54
95
5
88
11
52
32
72
3
40
90
15
60
23
12
31
36
70
21
6
67
24
80
57
22
48
27
87
56
46
77
38
7
85
89
33
28
25
65
61
62
18
69
93
68
75
10
63
64
84
76
30
78
59
39
17
96
83
9
26
13
71
47
81
66
44
1
91
86
82
73
29
19
41
14
49
79
50
97
